p tw 40 82
e 0 6
e 0 7
e 0 22
e 0 26
e 0 38
e 1 28
e 1 31
e 1 38
e 2 3
e 2 11
e 2 13
e 2 18
e 2 39
e 3 6
e 3 9
e 3 16
e 3 17
e 3 31
e 4 39
e 5 20
e 5 24
e 5 31
e 6 21
e 6 24
e 6 31
e 6 32
e 6 35
e 6 38
e 7 20
e 7 38
e 8 27
e 8 30
e 8 31
e 8 32
e 8 35
e 9 14
e 9 21
e 9 35
e 10 20
e 11 13
e 12 26
e 12 27
e 12 33
e 13 22
e 14 34
e 15 19
e 15 32
e 16 28
e 17 21
e 17 29
e 17 39
e 18 21
e 19 21
e 19 22
e 20 23
e 20 33
e 20 37
e 20 38
e 21 24
e 21 27
e 21 30
e 21 36
e 22 31
e 22 35
e 22 36
e 22 37
e 22 39
e 23 24
e 23 33
e 23 37
e 25 36
e 26 27
e 26 38
e 27 32
e 27 35
e 27 39
e 29 30
e 29 33
e 29 37
e 31 39
e 32 35
e 34 35
